NAME : random196.1039.tour
COMMENT : Length = 1039
COMMENT : Found by LKH [Keld Helsgaun] Sat Nov 23 16:27:19 2024
TYPE : TOUR
DIMENSION : 196
TOUR_SECTION
1
104
179
58
169
140
191
9
10
15
156
189
124
166
85
76
59
122
34
195
193
142
160
96
107
111
72
141
131
75
23
178
17
100
83
48
29
162
157
146
123
18
95
90
68
47
80
132
16
186
41
147
194
39
130
35
118
81
148
110
192
149
27
24
136
70
164
5
61
91
78
171
153
102
26
86
175
103
43
77
33
170
165
188
150
126
163
176
106
62
7
66
155
52
181
30
71
73
19
117
184
143
115
64
37
53
112
11
40
31
173
98
20
185
180
45
101
87
92
109
99
152
14
144
51
67
57
8
32
167
44
196
134
113
129
161
94
187
138
135
177
38
105
133
22
89
69
46
6
125
13
88
128
182
25
54
2
21
172
50
36
158
159
49
74
190
79
183
108
28
12
42
65
137
63
121
55
119
3
120
145
84
93
127
82
97
151
154
56
60
116
168
139
114
4
174
-1
EOF
